n =  80 ;
E = [| 1 , 3 ,
| 1 , 4 ,
| 1 , 7 ,
| 1 , 8 ,
| 1 , 9 ,
| 1 , 10 ,
| 1 , 12 ,
| 1 , 13 ,
| 1 , 14 ,
| 1 , 18 ,
| 1 , 19 ,
| 1 , 20 ,
| 1 , 22 ,
| 1 , 23 ,
| 1 , 24 ,
| 1 , 26 ,
| 1 , 29 ,
| 1 , 31 ,
| 1 , 32 ,
| 1 , 34 ,
| 1 , 36 ,
| 1 , 37 ,
| 1 , 39 ,
| 1 , 41 ,
| 1 , 42 ,
| 1 , 43 ,
| 1 , 44 ,
| 1 , 46 ,
| 1 , 48 ,
| 1 , 49 ,
| 1 , 51 ,
| 1 , 52 ,
| 1 , 54 ,
| 1 , 55 ,
| 1 , 58 ,
| 1 , 59 ,
| 1 , 60 ,
| 1 , 62 ,
| 1 , 64 ,
| 1 , 67 ,
| 1 , 68 ,
| 1 , 69 ,
| 1 , 72 ,
| 1 , 73 ,
| 1 , 74 ,
| 1 , 75 ,
| 1 , 77 ,
| 1 , 79 ,
| 2 , 4 ,
| 2 , 5 ,
| 2 , 6 ,
| 2 , 8 ,
| 2 , 13 ,
| 2 , 16 ,
| 2 , 17 ,
| 2 , 18 ,
| 2 , 19 ,
| 2 , 20 ,
| 2 , 22 ,
| 2 , 23 ,
| 2 , 24 ,
| 2 , 25 ,
| 2 , 27 ,
| 2 , 28 ,
| 2 , 31 ,
| 2 , 32 ,
| 2 , 33 ,
| 2 , 34 ,
| 2 , 35 ,
| 2 , 36 ,
| 2 , 38 ,
| 2 , 39 ,
| 2 , 42 ,
| 2 , 43 ,
| 2 , 45 ,
| 2 , 46 ,
| 2 , 47 ,
| 2 , 48 ,
| 2 , 49 ,
| 2 , 50 ,
| 2 , 53 ,
| 2 , 54 ,
| 2 , 56 ,
| 2 , 57 ,
| 2 , 58 ,
| 2 , 59 ,
| 2 , 60 ,
| 2 , 61 ,
| 2 , 62 ,
| 2 , 65 ,
| 2 , 66 ,
| 2 , 67 ,
| 2 , 68 ,
| 2 , 72 ,
| 2 , 73 ,
| 2 , 75 ,
| 2 , 76 ,
| 2 , 77 ,
| 2 , 78 ,
| 2 , 80 ,
| 3 , 5 ,
| 3 , 6 ,
| 3 , 7 ,
| 3 , 9 ,
| 3 , 10 ,
| 3 , 11 ,
| 3 , 13 ,
| 3 , 14 ,
| 3 , 15 ,
| 3 , 16 ,
| 3 , 19 ,
| 3 , 20 ,
| 3 , 21 ,
| 3 , 22 ,
| 3 , 23 ,
| 3 , 24 ,
| 3 , 27 ,
| 3 , 30 ,
| 3 , 31 ,
| 3 , 32 ,
| 3 , 33 ,
| 3 , 34 ,
| 3 , 35 ,
| 3 , 36 ,
| 3 , 37 ,
| 3 , 38 ,
| 3 , 39 ,
| 3 , 40 ,
| 3 , 45 ,
| 3 , 46 ,
| 3 , 47 ,
| 3 , 48 ,
| 3 , 50 ,
| 3 , 52 ,
| 3 , 53 ,
| 3 , 55 ,
| 3 , 56 ,
| 3 , 59 ,
| 3 , 60 ,
| 3 , 61 ,
| 3 , 62 ,
| 3 , 63 ,
| 3 , 65 ,
| 3 , 66 ,
| 3 , 68 ,
| 3 , 70 ,
| 3 , 72 ,
| 3 , 74 ,
| 3 , 77 ,
| 3 , 78 ,
| 4 , 5 ,
| 4 , 7 ,
| 4 , 10 ,
| 4 , 11 ,
| 4 , 12 ,
| 4 , 13 ,
| 4 , 14 ,
| 4 , 16 ,
| 4 , 17 ,
| 4 , 20 ,
| 4 , 21 ,
| 4 , 22 ,
| 4 , 23 ,
| 4 , 24 ,
| 4 , 25 ,
| 4 , 26 ,
| 4 , 28 ,
| 4 , 31 ,
| 4 , 34 ,
| 4 , 36 ,
| 4 , 37 ,
| 4 , 38 ,
| 4 , 41 ,
| 4 , 43 ,
| 4 , 44 ,
| 4 , 46 ,
| 4 , 48 ,
| 4 , 50 ,
| 4 , 51 ,
| 4 , 53 ,
| 4 , 54 ,
| 4 , 55 ,
| 4 , 56 ,
| 4 , 57 ,
| 4 , 58 ,
| 4 , 59 ,
| 4 , 60 ,
| 4 , 61 ,
| 4 , 62 ,
| 4 , 63 ,
| 4 , 65 ,
| 4 , 67 ,
| 4 , 70 ,
| 4 , 71 ,
| 4 , 72 ,
| 4 , 74 ,
| 4 , 77 ,
| 4 , 79 ,
| 4 , 80 ,
| 5 , 6 ,
| 5 , 9 ,
| 5 , 10 ,
| 5 , 11 ,
| 5 , 12 ,
| 5 , 13 ,
| 5 , 14 ,
| 5 , 15 ,
| 5 , 16 ,
| 5 , 17 ,
| 5 , 18 ,
| 5 , 19 ,
| 5 , 22 ,
| 5 , 23 ,
| 5 , 24 ,
| 5 , 27 ,
| 5 , 29 ,
| 5 , 31 ,
| 5 , 33 ,
| 5 , 35 ,
| 5 , 36 ,
| 5 , 37 ,
| 5 , 38 ,
| 5 , 41 ,
| 5 , 42 ,
| 5 , 43 ,
| 5 , 44 ,
| 5 , 47 ,
| 5 , 48 ,
| 5 , 49 ,
| 5 , 50 ,
| 5 , 51 ,
| 5 , 52 ,
| 5 , 53 ,
| 5 , 54 ,
| 5 , 55 ,
| 5 , 57 ,
| 5 , 59 ,
| 5 , 60 ,
| 5 , 61 ,
| 5 , 63 ,
| 5 , 64 ,
| 5 , 71 ,
| 5 , 72 ,
| 5 , 73 ,
| 5 , 75 ,
| 5 , 76 ,
| 5 , 80 ,
| 6 , 7 ,
| 6 , 8 ,
| 6 , 9 ,
| 6 , 10 ,
| 6 , 11 ,
| 6 , 12 ,
| 6 , 13 ,
| 6 , 17 ,
| 6 , 21 ,
| 6 , 22 ,
| 6 , 23 ,
| 6 , 24 ,
| 6 , 27 ,
| 6 , 28 ,
| 6 , 29 ,
| 6 , 30 ,
| 6 , 31 ,
| 6 , 32 ,
| 6 , 33 ,
| 6 , 34 ,
| 6 , 35 ,
| 6 , 36 ,
| 6 , 37 ,
| 6 , 39 ,
| 6 , 40 ,
| 6 , 41 ,
| 6 , 42 ,
| 6 , 44 ,
| 6 , 45 ,
| 6 , 46 ,
| 6 , 48 ,
| 6 , 49 ,
| 6 , 50 ,
| 6 , 51 ,
| 6 , 52 ,
| 6 , 53 ,
| 6 , 54 ,
| 6 , 55 ,
| 6 , 56 ,
| 6 , 58 ,
| 6 , 60 ,
| 6 , 64 ,
| 6 , 66 ,
| 6 , 68 ,
| 6 , 69 ,
| 6 , 70 ,
| 6 , 71 ,
| 6 , 73 ,
| 6 , 74 ,
| 6 , 75 ,
| 6 , 76 ,
| 6 , 78 ,
| 6 , 80 ,
| 7 , 8 ,
| 7 , 9 ,
| 7 , 11 ,
| 7 , 13 ,
| 7 , 15 ,
| 7 , 16 ,
| 7 , 18 ,
| 7 , 19 ,
| 7 , 22 ,
| 7 , 24 ,
| 7 , 25 ,
| 7 , 28 ,
| 7 , 29 ,
| 7 , 30 ,
| 7 , 33 ,
| 7 , 34 ,
| 7 , 35 ,
| 7 , 36 ,
| 7 , 38 ,
| 7 , 39 ,
| 7 , 40 ,
| 7 , 42 ,
| 7 , 43 ,
| 7 , 44 ,
| 7 , 46 ,
| 7 , 51 ,
| 7 , 52 ,
| 7 , 53 ,
| 7 , 54 ,
| 7 , 55 ,
| 7 , 57 ,
| 7 , 59 ,
| 7 , 60 ,
| 7 , 62 ,
| 7 , 64 ,
| 7 , 65 ,
| 7 , 66 ,
| 7 , 67 ,
| 7 , 68 ,
| 7 , 69 ,
| 7 , 71 ,
| 7 , 73 ,
| 7 , 74 ,
| 7 , 75 ,
| 7 , 76 ,
| 7 , 77 ,
| 7 , 78 ,
| 7 , 79 ,
| 7 , 80 ,
| 8 , 10 ,
| 8 , 11 ,
| 8 , 12 ,
| 8 , 13 ,
| 8 , 14 ,
| 8 , 17 ,
| 8 , 19 ,
| 8 , 20 ,
| 8 , 22 ,
| 8 , 24 ,
| 8 , 26 ,
| 8 , 27 ,
| 8 , 29 ,
| 8 , 30 ,
| 8 , 31 ,
| 8 , 33 ,
| 8 , 34 ,
| 8 , 35 ,
| 8 , 36 ,
| 8 , 37 ,
| 8 , 38 ,
| 8 , 42 ,
| 8 , 43 ,
| 8 , 44 ,
| 8 , 45 ,
| 8 , 46 ,
| 8 , 47 ,
| 8 , 49 ,
| 8 , 50 ,
| 8 , 51 ,
| 8 , 52 ,
| 8 , 53 ,
| 8 , 55 ,
| 8 , 56 ,
| 8 , 60 ,
| 8 , 61 ,
| 8 , 62 ,
| 8 , 63 ,
| 8 , 64 ,
| 8 , 66 ,
| 8 , 67 ,
| 8 , 70 ,
| 8 , 72 ,
| 8 , 73 ,
| 8 , 75 ,
| 8 , 76 ,
| 8 , 77 ,
| 8 , 79 ,
| 9 , 10 ,
| 9 , 17 ,
| 9 , 18 ,
| 9 , 19 ,
| 9 , 20 ,
| 9 , 21 ,
| 9 , 23 ,
| 9 , 25 ,
| 9 , 30 ,
| 9 , 31 ,
| 9 , 32 ,
| 9 , 34 ,
| 9 , 35 ,
| 9 , 36 ,
| 9 , 37 ,
| 9 , 38 ,
| 9 , 39 ,
| 9 , 40 ,
| 9 , 42 ,
| 9 , 44 ,
| 9 , 45 ,
| 9 , 46 ,
| 9 , 47 ,
| 9 , 49 ,
| 9 , 51 ,
| 9 , 54 ,
| 9 , 55 ,
| 9 , 58 ,
| 9 , 59 ,
| 9 , 61 ,
| 9 , 62 ,
| 9 , 63 ,
| 9 , 64 ,
| 9 , 66 ,
| 9 , 67 ,
| 9 , 70 ,
| 9 , 72 ,
| 9 , 73 ,
| 9 , 74 ,
| 9 , 75 ,
| 9 , 76 ,
| 9 , 77 ,
| 9 , 78 ,
| 10 , 11 ,
| 10 , 14 ,
| 10 , 18 ,
| 10 , 20 ,
| 10 , 21 ,
| 10 , 22 ,
| 10 , 24 ,
| 10 , 27 ,
| 10 , 28 ,
| 10 , 29 ,
| 10 , 30 ,
| 10 , 32 ,
| 10 , 33 ,
| 10 , 35 ,
| 10 , 37 ,
| 10 , 38 ,
| 10 , 39 ,
| 10 , 41 ,
| 10 , 43 ,
| 10 , 44 ,
| 10 , 45 ,
| 10 , 47 ,
| 10 , 49 ,
| 10 , 50 ,
| 10 , 51 ,
| 10 , 52 ,
| 10 , 55 ,
| 10 , 56 ,
| 10 , 57 ,
| 10 , 58 ,
| 10 , 59 ,
| 10 , 60 ,
| 10 , 61 ,
| 10 , 62 ,
| 10 , 63 ,
| 10 , 64 ,
| 10 , 66 ,
| 10 , 71 ,
| 10 , 73 ,
| 10 , 74 ,
| 10 , 76 ,
| 10 , 77 ,
| 10 , 78 ,
| 10 , 80 ,
| 11 , 12 ,
| 11 , 13 ,
| 11 , 14 ,
| 11 , 15 ,
| 11 , 17 ,
| 11 , 18 ,
| 11 , 19 ,
| 11 , 20 ,
| 11 , 21 ,
| 11 , 22 ,
| 11 , 23 ,
| 11 , 24 ,
| 11 , 25 ,
| 11 , 26 ,
| 11 , 27 ,
| 11 , 28 ,
| 11 , 30 ,
| 11 , 31 ,
| 11 , 32 ,
| 11 , 33 ,
| 11 , 35 ,
| 11 , 38 ,
| 11 , 40 ,
| 11 , 41 ,
| 11 , 45 ,
| 11 , 48 ,
| 11 , 49 ,
| 11 , 50 ,
| 11 , 52 ,
| 11 , 53 ,
| 11 , 54 ,
| 11 , 57 ,
| 11 , 58 ,
| 11 , 60 ,
| 11 , 63 ,
| 11 , 64 ,
| 11 , 66 ,
| 11 , 67 ,
| 11 , 70 ,
| 11 , 71 ,
| 11 , 72 ,
| 11 , 75 ,
| 11 , 79 ,
| 11 , 80 ,
| 12 , 16 ,
| 12 , 17 ,
| 12 , 18 ,
| 12 , 19 ,
| 12 , 21 ,
| 12 , 22 ,
| 12 , 23 ,
| 12 , 26 ,
| 12 , 28 ,
| 12 , 29 ,
| 12 , 35 ,
| 12 , 36 ,
| 12 , 39 ,
| 12 , 40 ,
| 12 , 41 ,
| 12 , 43 ,
| 12 , 47 ,
| 12 , 48 ,
| 12 , 49 ,
| 12 , 52 ,
| 12 , 54 ,
| 12 , 55 ,
| 12 , 56 ,
| 12 , 57 ,
| 12 , 58 ,
| 12 , 59 ,
| 12 , 60 ,
| 12 , 61 ,
| 12 , 62 ,
| 12 , 63 ,
| 12 , 64 ,
| 12 , 65 ,
| 12 , 66 ,
| 12 , 67 ,
| 12 , 68 ,
| 12 , 70 ,
| 12 , 71 ,
| 12 , 72 ,
| 12 , 73 ,
| 12 , 74 ,
| 12 , 75 ,
| 12 , 78 ,
| 12 , 79 ,
| 12 , 80 ,
| 13 , 15 ,
| 13 , 18 ,
| 13 , 21 ,
| 13 , 22 ,
| 13 , 23 ,
| 13 , 24 ,
| 13 , 26 ,
| 13 , 27 ,
| 13 , 31 ,
| 13 , 32 ,
| 13 , 33 ,
| 13 , 34 ,
| 13 , 36 ,
| 13 , 41 ,
| 13 , 42 ,
| 13 , 44 ,
| 13 , 46 ,
| 13 , 47 ,
| 13 , 48 ,
| 13 , 49 ,
| 13 , 56 ,
| 13 , 59 ,
| 13 , 61 ,
| 13 , 62 ,
| 13 , 63 ,
| 13 , 65 ,
| 13 , 66 ,
| 13 , 67 ,
| 13 , 68 ,
| 13 , 72 ,
| 13 , 74 ,
| 13 , 75 ,
| 13 , 76 ,
| 13 , 77 ,
| 13 , 79 ,
| 14 , 15 ,
| 14 , 17 ,
| 14 , 18 ,
| 14 , 23 ,
| 14 , 24 ,
| 14 , 26 ,
| 14 , 27 ,
| 14 , 30 ,
| 14 , 31 ,
| 14 , 32 ,
| 14 , 33 ,
| 14 , 34 ,
| 14 , 36 ,
| 14 , 37 ,
| 14 , 41 ,
| 14 , 43 ,
| 14 , 45 ,
| 14 , 47 ,
| 14 , 48 ,
| 14 , 49 ,
| 14 , 51 ,
| 14 , 54 ,
| 14 , 59 ,
| 14 , 62 ,
| 14 , 63 ,
| 14 , 64 ,
| 14 , 65 ,
| 14 , 66 ,
| 14 , 71 ,
| 14 , 73 ,
| 14 , 74 ,
| 14 , 75 ,
| 14 , 76 ,
| 14 , 77 ,
| 14 , 80 ,
| 15 , 17 ,
| 15 , 18 ,
| 15 , 19 ,
| 15 , 20 ,
| 15 , 26 ,
| 15 , 27 ,
| 15 , 29 ,
| 15 , 30 ,
| 15 , 31 ,
| 15 , 32 ,
| 15 , 34 ,
| 15 , 35 ,
| 15 , 36 ,
| 15 , 39 ,
| 15 , 41 ,
| 15 , 42 ,
| 15 , 43 ,
| 15 , 44 ,
| 15 , 45 ,
| 15 , 46 ,
| 15 , 48 ,
| 15 , 49 ,
| 15 , 50 ,
| 15 , 52 ,
| 15 , 53 ,
| 15 , 55 ,
| 15 , 56 ,
| 15 , 57 ,
| 15 , 58 ,
| 15 , 59 ,
| 15 , 61 ,
| 15 , 62 ,
| 15 , 63 ,
| 15 , 64 ,
| 15 , 66 ,
| 15 , 68 ,
| 15 , 70 ,
| 15 , 71 ,
| 15 , 72 ,
| 15 , 73 ,
| 15 , 74 ,
| 15 , 75 ,
| 15 , 76 ,
| 15 , 79 ,
| 16 , 17 ,
| 16 , 18 ,
| 16 , 19 ,
| 16 , 22 ,
| 16 , 23 ,
| 16 , 24 ,
| 16 , 25 ,
| 16 , 26 ,
| 16 , 27 ,
| 16 , 28 ,
| 16 , 32 ,
| 16 , 34 ,
| 16 , 35 ,
| 16 , 37 ,
| 16 , 39 ,
| 16 , 40 ,
| 16 , 41 ,
| 16 , 42 ,
| 16 , 43 ,
| 16 , 44 ,
| 16 , 45 ,
| 16 , 46 ,
| 16 , 48 ,
| 16 , 50 ,
| 16 , 51 ,
| 16 , 54 ,
| 16 , 56 ,
| 16 , 60 ,
| 16 , 63 ,
| 16 , 64 ,
| 16 , 65 ,
| 16 , 66 ,
| 16 , 69 ,
| 16 , 71 ,
| 16 , 73 ,
| 16 , 74 ,
| 16 , 75 ,
| 16 , 77 ,
| 17 , 19 ,
| 17 , 20 ,
| 17 , 21 ,
| 17 , 22 ,
| 17 , 24 ,
| 17 , 25 ,
| 17 , 26 ,
| 17 , 28 ,
| 17 , 29 ,
| 17 , 30 ,
| 17 , 31 ,
| 17 , 33 ,
| 17 , 34 ,
| 17 , 35 ,
| 17 , 37 ,
| 17 , 38 ,
| 17 , 39 ,
| 17 , 40 ,
| 17 , 41 ,
| 17 , 42 ,
| 17 , 43 ,
| 17 , 44 ,
| 17 , 45 ,
| 17 , 46 ,
| 17 , 47 ,
| 17 , 48 ,
| 17 , 50 ,
| 17 , 54 ,
| 17 , 60 ,
| 17 , 62 ,
| 17 , 65 ,
| 17 , 66 ,
| 17 , 67 ,
| 17 , 68 ,
| 17 , 69 ,
| 17 , 73 ,
| 17 , 74 ,
| 17 , 75 ,
| 17 , 76 ,
| 17 , 78 ,
| 17 , 79 ,
| 18 , 20 ,
| 18 , 24 ,
| 18 , 25 ,
| 18 , 26 ,
| 18 , 29 ,
| 18 , 30 ,
| 18 , 31 ,
| 18 , 32 ,
| 18 , 34 ,
| 18 , 35 ,
| 18 , 37 ,
| 18 , 38 ,
| 18 , 39 ,
| 18 , 40 ,
| 18 , 41 ,
| 18 , 44 ,
| 18 , 45 ,
| 18 , 47 ,
| 18 , 49 ,
| 18 , 51 ,
| 18 , 52 ,
| 18 , 53 ,
| 18 , 54 ,
| 18 , 56 ,
| 18 , 57 ,
| 18 , 60 ,
| 18 , 61 ,
| 18 , 63 ,
| 18 , 66 ,
| 18 , 67 ,
| 18 , 68 ,
| 18 , 70 ,
| 18 , 71 ,
| 18 , 72 ,
| 18 , 73 ,
| 18 , 74 ,
| 18 , 75 ,
| 18 , 77 ,
| 18 , 78 ,
| 18 , 79 ,
| 18 , 80 ,
| 19 , 20 ,
| 19 , 21 ,
| 19 , 23 ,
| 19 , 24 ,
| 19 , 26 ,
| 19 , 27 ,
| 19 , 28 ,
| 19 , 29 ,
| 19 , 31 ,
| 19 , 32 ,
| 19 , 34 ,
| 19 , 36 ,
| 19 , 37 ,
| 19 , 39 ,
| 19 , 40 ,
| 19 , 41 ,
| 19 , 43 ,
| 19 , 44 ,
| 19 , 48 ,
| 19 , 50 ,
| 19 , 52 ,
| 19 , 53 ,
| 19 , 58 ,
| 19 , 59 ,
| 19 , 60 ,
| 19 , 61 ,
| 19 , 64 ,
| 19 , 65 ,
| 19 , 67 ,
| 19 , 69 ,
| 19 , 70 ,
| 19 , 71 ,
| 19 , 74 ,
| 19 , 75 ,
| 19 , 77 ,
| 20 , 21 ,
| 20 , 25 ,
| 20 , 26 ,
| 20 , 27 ,
| 20 , 29 ,
| 20 , 30 ,
| 20 , 33 ,
| 20 , 34 ,
| 20 , 35 ,
| 20 , 37 ,
| 20 , 38 ,
| 20 , 39 ,
| 20 , 40 ,
| 20 , 41 ,
| 20 , 42 ,
| 20 , 43 ,
| 20 , 48 ,
| 20 , 49 ,
| 20 , 50 ,
| 20 , 54 ,
| 20 , 56 ,
| 20 , 57 ,
| 20 , 58 ,
| 20 , 60 ,
| 20 , 63 ,
| 20 , 64 ,
| 20 , 66 ,
| 20 , 68 ,
| 20 , 69 ,
| 20 , 70 ,
| 20 , 71 ,
| 20 , 72 ,
| 20 , 73 ,
| 20 , 74 ,
| 20 , 75 ,
| 20 , 76 ,
| 20 , 78 ,
| 21 , 22 ,
| 21 , 23 ,
| 21 , 27 ,
| 21 , 29 ,
| 21 , 31 ,
| 21 , 32 ,
| 21 , 33 ,
| 21 , 37 ,
| 21 , 38 ,
| 21 , 40 ,
| 21 , 42 ,
| 21 , 43 ,
| 21 , 44 ,
| 21 , 45 ,
| 21 , 48 ,
| 21 , 49 ,
| 21 , 51 ,
| 21 , 52 ,
| 21 , 54 ,
| 21 , 56 ,
| 21 , 58 ,
| 21 , 59 ,
| 21 , 60 ,
| 21 , 61 ,
| 21 , 62 ,
| 21 , 65 ,
| 21 , 66 ,
| 21 , 68 ,
| 21 , 70 ,
| 21 , 73 ,
| 21 , 74 ,
| 21 , 76 ,
| 21 , 80 ,
| 22 , 23 ,
| 22 , 26 ,
| 22 , 27 ,
| 22 , 28 ,
| 22 , 29 ,
| 22 , 30 ,
| 22 , 31 ,
| 22 , 33 ,
| 22 , 36 ,
| 22 , 38 ,
| 22 , 39 ,
| 22 , 41 ,
| 22 , 42 ,
| 22 , 43 ,
| 22 , 44 ,
| 22 , 46 ,
| 22 , 47 ,
| 22 , 48 ,
| 22 , 50 ,
| 22 , 51 ,
| 22 , 52 ,
| 22 , 53 ,
| 22 , 55 ,
| 22 , 57 ,
| 22 , 58 ,
| 22 , 60 ,
| 22 , 64 ,
| 22 , 66 ,
| 22 , 67 ,
| 22 , 68 ,
| 22 , 69 ,
| 22 , 70 ,
| 22 , 71 ,
| 22 , 72 ,
| 22 , 73 ,
| 22 , 74 ,
| 22 , 76 ,
| 22 , 78 ,
| 22 , 79 ,
| 22 , 80 ,
| 23 , 27 ,
| 23 , 31 ,
| 23 , 32 ,
| 23 , 33 ,
| 23 , 34 ,
| 23 , 35 ,
| 23 , 40 ,
| 23 , 43 ,
| 23 , 44 ,
| 23 , 45 ,
| 23 , 46 ,
| 23 , 47 ,
| 23 , 48 ,
| 23 , 49 ,
| 23 , 53 ,
| 23 , 54 ,
| 23 , 56 ,
| 23 , 57 ,
| 23 , 58 ,
| 23 , 59 ,
| 23 , 62 ,
| 23 , 66 ,
| 23 , 68 ,
| 23 , 69 ,
| 23 , 70 ,
| 23 , 71 ,
| 23 , 72 ,
| 23 , 75 ,
| 23 , 77 ,
| 23 , 79 ,
| 24 , 25 ,
| 24 , 27 ,
| 24 , 29 ,
| 24 , 30 ,
| 24 , 31 ,
| 24 , 32 ,
| 24 , 33 ,
| 24 , 34 ,
| 24 , 35 ,
| 24 , 37 ,
| 24 , 38 ,
| 24 , 39 ,
| 24 , 40 ,
| 24 , 41 ,
| 24 , 42 ,
| 24 , 43 ,
| 24 , 45 ,
| 24 , 47 ,
| 24 , 48 ,
| 24 , 49 ,
| 24 , 50 ,
| 24 , 51 ,
| 24 , 52 ,
| 24 , 53 ,
| 24 , 54 ,
| 24 , 55 ,
| 24 , 57 ,
| 24 , 61 ,
| 24 , 64 ,
| 24 , 66 ,
| 24 , 67 ,
| 24 , 68 ,
| 24 , 69 ,
| 24 , 72 ,
| 24 , 74 ,
| 24 , 76 ,
| 24 , 77 ,
| 24 , 79 ,
| 25 , 29 ,
| 25 , 30 ,
| 25 , 31 ,
| 25 , 33 ,
| 25 , 37 ,
| 25 , 39 ,
| 25 , 40 ,
| 25 , 41 ,
| 25 , 43 ,
| 25 , 44 ,
| 25 , 47 ,
| 25 , 48 ,
| 25 , 51 ,
| 25 , 62 ,
| 25 , 63 ,
| 25 , 64 ,
| 25 , 65 ,
| 25 , 66 ,
| 25 , 68 ,
| 25 , 69 ,
| 25 , 70 ,
| 25 , 71 ,
| 25 , 72 ,
| 25 , 74 ,
| 25 , 78 ,
| 25 , 80 ,
| 26 , 27 ,
| 26 , 29 ,
| 26 , 30 ,
| 26 , 34 ,
| 26 , 35 ,
| 26 , 36 ,
| 26 , 41 ,
| 26 , 44 ,
| 26 , 46 ,
| 26 , 47 ,
| 26 , 48 ,
| 26 , 49 ,
| 26 , 50 ,
| 26 , 52 ,
| 26 , 53 ,
| 26 , 54 ,
| 26 , 58 ,
| 26 , 60 ,
| 26 , 61 ,
| 26 , 62 ,
| 26 , 64 ,
| 26 , 65 ,
| 26 , 66 ,
| 26 , 67 ,
| 26 , 69 ,
| 26 , 73 ,
| 26 , 74 ,
| 26 , 75 ,
| 26 , 76 ,
| 26 , 77 ,
| 26 , 80 ,
| 27 , 30 ,
| 27 , 32 ,
| 27 , 34 ,
| 27 , 35 ,
| 27 , 36 ,
| 27 , 37 ,
| 27 , 38 ,
| 27 , 39 ,
| 27 , 42 ,
| 27 , 43 ,
| 27 , 44 ,
| 27 , 45 ,
| 27 , 48 ,
| 27 , 49 ,
| 27 , 51 ,
| 27 , 53 ,
| 27 , 54 ,
| 27 , 57 ,
| 27 , 60 ,
| 27 , 61 ,
| 27 , 62 ,
| 27 , 65 ,
| 27 , 66 ,
| 27 , 67 ,
| 27 , 69 ,
| 27 , 72 ,
| 27 , 77 ,
| 27 , 78 ,
| 27 , 79 ,
| 27 , 80 ,
| 28 , 29 ,
| 28 , 30 ,
| 28 , 31 ,
| 28 , 33 ,
| 28 , 36 ,
| 28 , 37 ,
| 28 , 40 ,
| 28 , 41 ,
| 28 , 43 ,
| 28 , 46 ,
| 28 , 48 ,
| 28 , 54 ,
| 28 , 56 ,
| 28 , 57 ,
| 28 , 59 ,
| 28 , 61 ,
| 28 , 63 ,
| 28 , 67 ,
| 28 , 68 ,
| 28 , 69 ,
| 28 , 70 ,
| 28 , 73 ,
| 28 , 74 ,
| 28 , 76 ,
| 28 , 78 ,
| 29 , 30 ,
| 29 , 31 ,
| 29 , 34 ,
| 29 , 36 ,
| 29 , 37 ,
| 29 , 40 ,
| 29 , 41 ,
| 29 , 43 ,
| 29 , 44 ,
| 29 , 45 ,
| 29 , 48 ,
| 29 , 51 ,
| 29 , 53 ,
| 29 , 54 ,
| 29 , 55 ,
| 29 , 57 ,
| 29 , 58 ,
| 29 , 60 ,
| 29 , 61 ,
| 29 , 64 ,
| 29 , 65 ,
| 29 , 66 ,
| 29 , 67 ,
| 29 , 68 ,
| 29 , 70 ,
| 29 , 73 ,
| 29 , 74 ,
| 29 , 75 ,
| 29 , 76 ,
| 29 , 78 ,
| 29 , 80 ,
| 30 , 32 ,
| 30 , 33 ,
| 30 , 35 ,
| 30 , 36 ,
| 30 , 37 ,
| 30 , 38 ,
| 30 , 40 ,
| 30 , 41 ,
| 30 , 43 ,
| 30 , 44 ,
| 30 , 45 ,
| 30 , 46 ,
| 30 , 47 ,
| 30 , 48 ,
| 30 , 49 ,
| 30 , 51 ,
| 30 , 54 ,
| 30 , 55 ,
| 30 , 56 ,
| 30 , 57 ,
| 30 , 58 ,
| 30 , 59 ,
| 30 , 60 ,
| 30 , 61 ,
| 30 , 63 ,
| 30 , 64 ,
| 30 , 65 ,
| 30 , 66 ,
| 30 , 67 ,
| 30 , 69 ,
| 30 , 70 ,
| 30 , 71 ,
| 30 , 72 ,
| 30 , 74 ,
| 30 , 75 ,
| 30 , 76 ,
| 30 , 77 ,
| 30 , 79 ,
| 30 , 80 ,
| 31 , 34 ,
| 31 , 36 ,
| 31 , 38 ,
| 31 , 39 ,
| 31 , 40 ,
| 31 , 41 ,
| 31 , 42 ,
| 31 , 43 ,
| 31 , 48 ,
| 31 , 50 ,
| 31 , 53 ,
| 31 , 55 ,
| 31 , 56 ,
| 31 , 57 ,
| 31 , 58 ,
| 31 , 59 ,
| 31 , 60 ,
| 31 , 61 ,
| 31 , 66 ,
| 31 , 67 ,
| 31 , 69 ,
| 31 , 70 ,
| 31 , 72 ,
| 31 , 73 ,
| 31 , 74 ,
| 31 , 78 ,
| 31 , 79 ,
| 31 , 80 ,
| 32 , 33 ,
| 32 , 34 ,
| 32 , 36 ,
| 32 , 38 ,
| 32 , 40 ,
| 32 , 41 ,
| 32 , 43 ,
| 32 , 45 ,
| 32 , 47 ,
| 32 , 48 ,
| 32 , 53 ,
| 32 , 54 ,
| 32 , 58 ,
| 32 , 59 ,
| 32 , 60 ,
| 32 , 61 ,
| 32 , 62 ,
| 32 , 63 ,
| 32 , 66 ,
| 32 , 69 ,
| 32 , 71 ,
| 32 , 74 ,
| 32 , 76 ,
| 32 , 78 ,
| 32 , 80 ,
| 33 , 35 ,
| 33 , 36 ,
| 33 , 38 ,
| 33 , 39 ,
| 33 , 41 ,
| 33 , 42 ,
| 33 , 44 ,
| 33 , 45 ,
| 33 , 47 ,
| 33 , 49 ,
| 33 , 50 ,
| 33 , 51 ,
| 33 , 52 ,
| 33 , 53 ,
| 33 , 54 ,
| 33 , 55 ,
| 33 , 56 ,
| 33 , 57 ,
| 33 , 59 ,
| 33 , 61 ,
| 33 , 63 ,
| 33 , 64 ,
| 33 , 65 ,
| 33 , 67 ,
| 33 , 68 ,
| 33 , 69 ,
| 33 , 71 ,
| 33 , 72 ,
| 33 , 74 ,
| 33 , 76 ,
| 33 , 77 ,
| 33 , 78 ,
| 33 , 79 ,
| 33 , 80 ,
| 34 , 35 ,
| 34 , 36 ,
| 34 , 37 ,
| 34 , 38 ,
| 34 , 40 ,
| 34 , 45 ,
| 34 , 47 ,
| 34 , 48 ,
| 34 , 49 ,
| 34 , 51 ,
| 34 , 52 ,
| 34 , 55 ,
| 34 , 57 ,
| 34 , 58 ,
| 34 , 60 ,
| 34 , 65 ,
| 34 , 67 ,
| 34 , 68 ,
| 34 , 69 ,
| 34 , 71 ,
| 34 , 72 ,
| 34 , 73 ,
| 34 , 74 ,
| 34 , 75 ,
| 34 , 76 ,
| 34 , 79 ,
| 34 , 80 ,
| 35 , 36 ,
| 35 , 37 ,
| 35 , 38 ,
| 35 , 40 ,
| 35 , 42 ,
| 35 , 44 ,
| 35 , 45 ,
| 35 , 46 ,
| 35 , 47 ,
| 35 , 48 ,
| 35 , 51 ,
| 35 , 54 ,
| 35 , 58 ,
| 35 , 59 ,
| 35 , 61 ,
| 35 , 62 ,
| 35 , 63 ,
| 35 , 65 ,
| 35 , 66 ,
| 35 , 67 ,
| 35 , 68 ,
| 35 , 69 ,
| 35 , 70 ,
| 35 , 71 ,
| 35 , 73 ,
| 35 , 74 ,
| 35 , 75 ,
| 35 , 76 ,
| 35 , 77 ,
| 35 , 79 ,
| 36 , 38 ,
| 36 , 39 ,
| 36 , 40 ,
| 36 , 41 ,
| 36 , 42 ,
| 36 , 43 ,
| 36 , 45 ,
| 36 , 46 ,
| 36 , 47 ,
| 36 , 49 ,
| 36 , 50 ,
| 36 , 51 ,
| 36 , 53 ,
| 36 , 54 ,
| 36 , 55 ,
| 36 , 56 ,
| 36 , 57 ,
| 36 , 58 ,
| 36 , 59 ,
| 36 , 60 ,
| 36 , 62 ,
| 36 , 63 ,
| 36 , 64 ,
| 36 , 65 ,
| 36 , 67 ,
| 36 , 68 ,
| 36 , 70 ,
| 36 , 72 ,
| 36 , 73 ,
| 36 , 74 ,
| 36 , 76 ,
| 36 , 77 ,
| 36 , 78 ,
| 36 , 79 ,
| 37 , 38 ,
| 37 , 41 ,
| 37 , 42 ,
| 37 , 43 ,
| 37 , 44 ,
| 37 , 46 ,
| 37 , 47 ,
| 37 , 48 ,
| 37 , 50 ,
| 37 , 51 ,
| 37 , 53 ,
| 37 , 55 ,
| 37 , 59 ,
| 37 , 60 ,
| 37 , 61 ,
| 37 , 64 ,
| 37 , 66 ,
| 37 , 67 ,
| 37 , 69 ,
| 37 , 70 ,
| 37 , 72 ,
| 37 , 73 ,
| 37 , 74 ,
| 37 , 76 ,
| 37 , 79 ,
| 37 , 80 ,
| 38 , 39 ,
| 38 , 40 ,
| 38 , 42 ,
| 38 , 43 ,
| 38 , 45 ,
| 38 , 46 ,
| 38 , 48 ,
| 38 , 49 ,
| 38 , 52 ,
| 38 , 56 ,
| 38 , 57 ,
| 38 , 58 ,
| 38 , 59 ,
| 38 , 61 ,
| 38 , 63 ,
| 38 , 64 ,
| 38 , 67 ,
| 38 , 69 ,
| 38 , 70 ,
| 38 , 71 ,
| 38 , 72 ,
| 38 , 73 ,
| 38 , 74 ,
| 38 , 76 ,
| 38 , 77 ,
| 38 , 78 ,
| 39 , 41 ,
| 39 , 44 ,
| 39 , 45 ,
| 39 , 46 ,
| 39 , 47 ,
| 39 , 48 ,
| 39 , 49 ,
| 39 , 51 ,
| 39 , 52 ,
| 39 , 53 ,
| 39 , 55 ,
| 39 , 56 ,
| 39 , 57 ,
| 39 , 59 ,
| 39 , 60 ,
| 39 , 61 ,
| 39 , 62 ,
| 39 , 64 ,
| 39 , 65 ,
| 39 , 66 ,
| 39 , 67 ,
| 39 , 68 ,
| 39 , 70 ,
| 39 , 73 ,
| 39 , 75 ,
| 39 , 76 ,
| 39 , 79 ,
| 39 , 80 ,
| 40 , 41 ,
| 40 , 43 ,
| 40 , 45 ,
| 40 , 49 ,
| 40 , 54 ,
| 40 , 55 ,
| 40 , 56 ,
| 40 , 58 ,
| 40 , 60 ,
| 40 , 61 ,
| 40 , 62 ,
| 40 , 64 ,
| 40 , 65 ,
| 40 , 66 ,
| 40 , 67 ,
| 40 , 69 ,
| 40 , 73 ,
| 40 , 74 ,
| 40 , 76 ,
| 40 , 77 ,
| 40 , 78 ,
| 40 , 79 ,
| 41 , 42 ,
| 41 , 47 ,
| 41 , 48 ,
| 41 , 49 ,
| 41 , 50 ,
| 41 , 52 ,
| 41 , 54 ,
| 41 , 56 ,
| 41 , 58 ,
| 41 , 59 ,
| 41 , 61 ,
| 41 , 63 ,
| 41 , 65 ,
| 41 , 67 ,
| 41 , 68 ,
| 41 , 69 ,
| 41 , 71 ,
| 41 , 72 ,
| 41 , 73 ,
| 41 , 75 ,
| 41 , 76 ,
| 41 , 77 ,
| 41 , 78 ,
| 41 , 79 ,
| 42 , 43 ,
| 42 , 44 ,
| 42 , 45 ,
| 42 , 53 ,
| 42 , 54 ,
| 42 , 56 ,
| 42 , 57 ,
| 42 , 60 ,
| 42 , 61 ,
| 42 , 62 ,
| 42 , 64 ,
| 42 , 65 ,
| 42 , 66 ,
| 42 , 67 ,
| 42 , 68 ,
| 42 , 71 ,
| 42 , 73 ,
| 42 , 74 ,
| 42 , 75 ,
| 42 , 76 ,
| 42 , 77 ,
| 42 , 78 ,
| 42 , 79 ,
| 43 , 45 ,
| 43 , 46 ,
| 43 , 47 ,
| 43 , 50 ,
| 43 , 51 ,
| 43 , 52 ,
| 43 , 53 ,
| 43 , 54 ,
| 43 , 57 ,
| 43 , 58 ,
| 43 , 59 ,
| 43 , 60 ,
| 43 , 63 ,
| 43 , 64 ,
| 43 , 66 ,
| 43 , 68 ,
| 43 , 71 ,
| 43 , 73 ,
| 43 , 74 ,
| 43 , 77 ,
| 43 , 79 ,
| 44 , 45 ,
| 44 , 46 ,
| 44 , 47 ,
| 44 , 49 ,
| 44 , 51 ,
| 44 , 52 ,
| 44 , 54 ,
| 44 , 56 ,
| 44 , 58 ,
| 44 , 60 ,
| 44 , 65 ,
| 44 , 68 ,
| 44 , 69 ,
| 44 , 71 ,
| 44 , 72 ,
| 44 , 73 ,
| 44 , 75 ,
| 44 , 76 ,
| 44 , 77 ,
| 44 , 78 ,
| 44 , 80 ,
| 45 , 46 ,
| 45 , 47 ,
| 45 , 48 ,
| 45 , 49 ,
| 45 , 50 ,
| 45 , 51 ,
| 45 , 53 ,
| 45 , 54 ,
| 45 , 55 ,
| 45 , 56 ,
| 45 , 57 ,
| 45 , 59 ,
| 45 , 60 ,
| 45 , 61 ,
| 45 , 63 ,
| 45 , 64 ,
| 45 , 65 ,
| 45 , 67 ,
| 45 , 70 ,
| 45 , 71 ,
| 45 , 72 ,
| 45 , 74 ,
| 45 , 75 ,
| 45 , 77 ,
| 45 , 78 ,
| 45 , 79 ,
| 45 , 80 ,
| 46 , 49 ,
| 46 , 50 ,
| 46 , 51 ,
| 46 , 52 ,
| 46 , 53 ,
| 46 , 54 ,
| 46 , 56 ,
| 46 , 57 ,
| 46 , 58 ,
| 46 , 59 ,
| 46 , 60 ,
| 46 , 61 ,
| 46 , 63 ,
| 46 , 66 ,
| 46 , 67 ,
| 46 , 68 ,
| 46 , 70 ,
| 46 , 73 ,
| 46 , 74 ,
| 46 , 75 ,
| 46 , 76 ,
| 46 , 78 ,
| 47 , 48 ,
| 47 , 49 ,
| 47 , 50 ,
| 47 , 51 ,
| 47 , 54 ,
| 47 , 55 ,
| 47 , 57 ,
| 47 , 58 ,
| 47 , 61 ,
| 47 , 62 ,
| 47 , 66 ,
| 47 , 67 ,
| 47 , 68 ,
| 47 , 69 ,
| 47 , 70 ,
| 47 , 72 ,
| 47 , 77 ,
| 47 , 79 ,
| 48 , 49 ,
| 48 , 50 ,
| 48 , 51 ,
| 48 , 52 ,
| 48 , 53 ,
| 48 , 57 ,
| 48 , 58 ,
| 48 , 59 ,
| 48 , 60 ,
| 48 , 61 ,
| 48 , 62 ,
| 48 , 63 ,
| 48 , 64 ,
| 48 , 67 ,
| 48 , 71 ,
| 48 , 73 ,
| 48 , 74 ,
| 48 , 76 ,
| 48 , 77 ,
| 48 , 79 ,
| 49 , 50 ,
| 49 , 51 ,
| 49 , 52 ,
| 49 , 53 ,
| 49 , 55 ,
| 49 , 56 ,
| 49 , 57 ,
| 49 , 59 ,
| 49 , 62 ,
| 49 , 63 ,
| 49 , 64 ,
| 49 , 65 ,
| 49 , 66 ,
| 49 , 67 ,
| 49 , 68 ,
| 49 , 69 ,
| 49 , 70 ,
| 49 , 71 ,
| 49 , 72 ,
| 49 , 73 ,
| 49 , 75 ,
| 49 , 76 ,
| 49 , 77 ,
| 50 , 52 ,
| 50 , 53 ,
| 50 , 55 ,
| 50 , 57 ,
| 50 , 58 ,
| 50 , 60 ,
| 50 , 62 ,
| 50 , 63 ,
| 50 , 64 ,
| 50 , 66 ,
| 50 , 68 ,
| 50 , 69 ,
| 50 , 70 ,
| 50 , 71 ,
| 50 , 72 ,
| 50 , 74 ,
| 50 , 75 ,
| 50 , 77 ,
| 50 , 79 ,
| 50 , 80 ,
| 51 , 52 ,
| 51 , 53 ,
| 51 , 54 ,
| 51 , 55 ,
| 51 , 56 ,
| 51 , 57 ,
| 51 , 59 ,
| 51 , 61 ,
| 51 , 63 ,
| 51 , 64 ,
| 51 , 66 ,
| 51 , 67 ,
| 51 , 68 ,
| 51 , 69 ,
| 51 , 75 ,
| 51 , 77 ,
| 51 , 78 ,
| 51 , 79 ,
| 51 , 80 ,
| 52 , 53 ,
| 52 , 54 ,
| 52 , 56 ,
| 52 , 58 ,
| 52 , 61 ,
| 52 , 62 ,
| 52 , 63 ,
| 52 , 65 ,
| 52 , 67 ,
| 52 , 68 ,
| 52 , 69 ,
| 52 , 70 ,
| 52 , 71 ,
| 52 , 72 ,
| 52 , 73 ,
| 52 , 75 ,
| 52 , 76 ,
| 52 , 77 ,
| 52 , 79 ,
| 53 , 60 ,
| 53 , 61 ,
| 53 , 63 ,
| 53 , 64 ,
| 53 , 65 ,
| 53 , 66 ,
| 53 , 67 ,
| 53 , 68 ,
| 53 , 71 ,
| 53 , 72 ,
| 53 , 73 ,
| 53 , 74 ,
| 53 , 75 ,
| 53 , 76 ,
| 53 , 79 ,
| 53 , 80 ,
| 54 , 55 ,
| 54 , 58 ,
| 54 , 59 ,
| 54 , 63 ,
| 54 , 64 ,
| 54 , 65 ,
| 54 , 66 ,
| 54 , 67 ,
| 54 , 69 ,
| 54 , 72 ,
| 54 , 73 ,
| 54 , 74 ,
| 54 , 75 ,
| 54 , 76 ,
| 55 , 57 ,
| 55 , 62 ,
| 55 , 63 ,
| 55 , 64 ,
| 55 , 65 ,
| 55 , 68 ,
| 55 , 69 ,
| 55 , 70 ,
| 55 , 71 ,
| 55 , 72 ,
| 55 , 74 ,
| 55 , 75 ,
| 55 , 76 ,
| 55 , 77 ,
| 55 , 79 ,
| 55 , 80 ,
| 56 , 57 ,
| 56 , 58 ,
| 56 , 60 ,
| 56 , 61 ,
| 56 , 63 ,
| 56 , 64 ,
| 56 , 65 ,
| 56 , 66 ,
| 56 , 68 ,
| 56 , 70 ,
| 56 , 72 ,
| 56 , 73 ,
| 56 , 76 ,
| 56 , 77 ,
| 56 , 78 ,
| 56 , 79 ,
| 56 , 80 ,
| 57 , 58 ,
| 57 , 60 ,
| 57 , 62 ,
| 57 , 64 ,
| 57 , 67 ,
| 57 , 68 ,
| 57 , 69 ,
| 57 , 70 ,
| 57 , 71 ,
| 57 , 72 ,
| 57 , 73 ,
| 57 , 75 ,
| 57 , 79 ,
| 58 , 61 ,
| 58 , 63 ,
| 58 , 66 ,
| 58 , 68 ,
| 58 , 70 ,
| 58 , 71 ,
| 58 , 72 ,
| 58 , 76 ,
| 58 , 78 ,
| 58 , 79 ,
| 58 , 80 ,
| 59 , 63 ,
| 59 , 64 ,
| 59 , 65 ,
| 59 , 66 ,
| 59 , 67 ,
| 59 , 68 ,
| 59 , 72 ,
| 59 , 73 ,
| 59 , 74 ,
| 59 , 75 ,
| 59 , 76 ,
| 59 , 77 ,
| 59 , 79 ,
| 59 , 80 ,
| 60 , 61 ,
| 60 , 63 ,
| 60 , 64 ,
| 60 , 65 ,
| 60 , 66 ,
| 60 , 69 ,
| 60 , 70 ,
| 60 , 73 ,
| 60 , 77 ,
| 60 , 78 ,
| 60 , 79 ,
| 60 , 80 ,
| 61 , 62 ,
| 61 , 65 ,
| 61 , 66 ,
| 61 , 67 ,
| 61 , 68 ,
| 61 , 69 ,
| 61 , 73 ,
| 61 , 74 ,
| 61 , 75 ,
| 61 , 78 ,
| 61 , 80 ,
| 62 , 63 ,
| 62 , 65 ,
| 62 , 66 ,
| 62 , 68 ,
| 62 , 70 ,
| 62 , 73 ,
| 62 , 76 ,
| 62 , 77 ,
| 62 , 80 ,
| 63 , 65 ,
| 63 , 66 ,
| 63 , 68 ,
| 63 , 72 ,
| 63 , 73 ,
| 63 , 74 ,
| 63 , 75 ,
| 63 , 76 ,
| 63 , 78 ,
| 63 , 80 ,
| 64 , 66 ,
| 64 , 67 ,
| 64 , 69 ,
| 64 , 70 ,
| 64 , 72 ,
| 64 , 74 ,
| 64 , 75 ,
| 64 , 77 ,
| 64 , 80 ,
| 65 , 67 ,
| 65 , 68 ,
| 65 , 69 ,
| 65 , 70 ,
| 65 , 74 ,
| 65 , 75 ,
| 65 , 77 ,
| 65 , 78 ,
| 65 , 79 ,
| 65 , 80 ,
| 66 , 67 ,
| 66 , 68 ,
| 66 , 69 ,
| 66 , 70 ,
| 66 , 71 ,
| 66 , 74 ,
| 66 , 76 ,
| 66 , 77 ,
| 66 , 78 ,
| 66 , 79 ,
| 66 , 80 ,
| 67 , 68 ,
| 67 , 69 ,
| 67 , 70 ,
| 67 , 72 ,
| 67 , 74 ,
| 67 , 75 ,
| 67 , 76 ,
| 67 , 77 ,
| 67 , 78 ,
| 67 , 79 ,
| 68 , 70 ,
| 68 , 71 ,
| 68 , 73 ,
| 68 , 74 ,
| 68 , 75 ,
| 68 , 77 ,
| 68 , 79 ,
| 69 , 72 ,
| 69 , 73 ,
| 69 , 74 ,
| 69 , 75 ,
| 69 , 76 ,
| 69 , 77 ,
| 69 , 78 ,
| 70 , 71 ,
| 70 , 72 ,
| 70 , 73 ,
| 70 , 74 ,
| 70 , 75 ,
| 70 , 77 ,
| 70 , 79 ,
| 70 , 80 ,
| 71 , 73 ,
| 71 , 75 ,
| 71 , 76 ,
| 71 , 77 ,
| 71 , 78 ,
| 71 , 79 ,
| 71 , 80 ,
| 72 , 73 ,
| 72 , 74 ,
| 72 , 75 ,
| 72 , 76 ,
| 72 , 77 ,
| 72 , 78 ,
| 72 , 79 ,
| 72 , 80 ,
| 73 , 75 ,
| 73 , 76 ,
| 73 , 77 ,
| 73 , 79 ,
| 74 , 76 ,
| 74 , 78 ,
| 74 , 80 ,
| 75 , 77 ,
| 76 , 77 ,
| 76 , 78 ,
| 77 , 78 ,
| 77 , 79 ,
| 78 , 79 ,
| 78 , 80 ,
| 79 , 80 ,
|];
e =  1973 ;
